(set-info :status unknown)
(declare-fun %A () (_ BitVec 58))
(declare-fun %B () (_ BitVec 58))
(declare-fun u_%Y () (_ BitVec 8))
(declare-fun |ana_isPowerOf2(%A)| () (_ BitVec 1))
(declare-fun %X () (_ BitVec 58))
(assert
 (let (($x342 (= |ana_isPowerOf2(%A)| (_ bv1 1))))
 (let (($x13552 (bvult %B (_ bv58 58))))
 (let (($x7990 (=> $x342 (and (and (distinct %A (_ bv0 58)) true) (= (bvand %A (bvsub %A (_ bv1 58))) (_ bv0 58))))))
 (let (($x16256 (or (and (distinct %X (_ bv144115188075855872 58)) true) (and (distinct (bvshl %A %B) (_ bv288230376151711743 58)) true))))
 (let ((?x16128 (bvshl %A %B)))
 (let (($x668 (and (distinct ?x16128 (_ bv0 58)) true)))
 (and $x13552 $x668 $x16256 $x7990 $x13552 $x342 (= u_%Y (_ bv1 8)) (not (= (bvlshr ?x16128 %B) %A))))))))))
(check-sat)
